set S_TRAYS :=
1234567891011121314151617181920212223242526272829303132;

set S_RECTIFICATION :=
2345678910111213141516;

set S_STRIPPING :=
1819202122232425262728293031;

param x0 := 
1	0.9354194162	0.9005255373	0.8622964514	0.8216994035	0.7799907966	0.7385716867	0.6988049098	0.6618425349	0.62850777610	0.599252711	0.5741856812	0.55314422713	0.53578454414	0.5216655115	0.51031495116	0.50127509217	0.49412891718	0.4854499219	0.47420248120	0.45980349921	0.44164297322	0.41919109823	0.39205549224	0.36024592625	0.3240799326	0.28467681627	0.24320921328	0.20181568329	0.1617726930	0.1251497131	0.09245832632	0.064583177;

